30
1 0 3
2 0 7
3 1 11
3 2 2
4 1 6
4 2 11
4 3 13
5 0 14
5 3 18
5 4 12
6 0 4
6 2 15
7 0 9
7 3 2
8 0 18
8 1 1
8 2 20
8 3 4
8 5 7
8 6 5
8 7 10
9 0 16
9 1 4
9 4 3
9 6 10
10 0 7
10 1 3
10 3 7
10 7 12
11 1 8
11 5 4
11 6 19
11 7 7
11 9 20
12 3 12
12 4 4
12 5 6
12 7 1
12 11 6
13 1 3
13 6 10
13 7 15
13 8 6
13 9 13
14 0 17
14 5 17
14 9 7
15 0 17
15 1 3
15 2 20
15 3 12
15 4 19
15 5 5
15 6 5
15 9 4
15 13 12
15 14 13
16 0 6
16 1 14
16 2 3
16 3 1
16 5 6
16 8 2
16 9 13
16 12 8
16 13 6
16 15 2
17 0 13
17 2 3
17 4 4
17 6 11
17 9 2
17 11 19
17 12 11
17 14 3
17 15 7
18 1 13
18 3 13
18 4 1
18 6 17
18 9 20
18 11 19
18 12 1
18 13 1
18 14 1
18 15 1
19 2 4
19 3 20
19 4 14
19 5 19
19 9 9
19 10 9
19 12 9
19 13 6
19 14 17
19 15 16
19 16 15
19 17 1
20 0 16
20 1 8
20 3 10
20 5 16
20 8 10
20 11 3
20 12 9
20 13 17
20 15 6
20 16 6
20 18 10
20 19 19
21 0 5
21 1 10
21 2 13
21 3 11
21 4 5
21 5 3
21 6 11
21 7 15
21 8 6
21 9 3
21 11 6
21 12 19
21 18 4
21 19 15
21 20 9
22 1 10
22 2 20
22 3 18
22 4 19
22 5 9
22 6 9
22 9 6
22 10 2
22 19 11
22 21 12
23 0 3
23 1 1
23 2 19
23 3 11
23 6 18
23 9 7
23 11 20
23 12 12
23 14 4
23 15 4
23 16 16
23 18 6
23 19 19
23 20 14
24 2 9
24 3 19
24 6 15
24 7 15
24 9 18
24 10 10
24 18 15
24 19 13
25 2 20
25 3 6
25 9 19
25 11 2
25 12 12
25 15 16
25 16 5
25 18 14
25 19 13
25 20 5
25 21 4
25 24 14
26 0 8
26 4 13
26 8 11
26 9 20
26 10 11
26 11 8
26 14 15
26 19 4
26 22 1
26 23 3
26 24 11
26 25 5
27 0 13
27 1 17
27 2 12
27 3 12
27 4 17
27 9 6
27 13 9
27 14 2
27 18 16
27 21 16
27 22 7
27 25 5
28 1 17
28 6 18
28 7 17
28 9 7
28 12 18
28 13 1
28 14 16
28 19 14
28 20 5
28 21 4
28 22 9
28 23 7
28 26 16
28 27 18
29 2 1
29 6 7
29 7 15
29 10 4
29 12 4
29 13 15
29 14 19
29 16 8
29 17 4
29 18 19
29 19 12
29 20 4
29 22 17
29 23 18
